c CNF file corresponding to a (partial) station packing problem.
p cnf 2119 229
1 2 3 4 5 6 7 8 9 10 11 12 13 14 0
-1 -2 0
-1 -3 0
-1 -4 0
-1 -5 0
-1 -6 0
-1 -7 0
-1 -8 0
-1 -9 0
-1 -10 0
-1 -11 0
-1 -12 0
-1 -13 0
-1 -14 0
-2 -3 0
-2 -4 0
-2 -5 0
-2 -6 0
-2 -7 0
-2 -8 0
-2 -9 0
-2 -10 0
-2 -11 0
-2 -12 0
-2 -13 0
-2 -14 0
-3 -4 0
-3 -5 0
-3 -6 0
-3 -7 0
-3 -8 0
-3 -9 0
-3 -10 0
-3 -11 0
-3 -12 0
-3 -13 0
-3 -14 0
-4 -5 0
-4 -6 0
-4 -7 0
-4 -8 0
-4 -9 0
-4 -10 0
-4 -11 0
-4 -12 0
-4 -13 0
-4 -14 0
-5 -6 0
-5 -7 0
-5 -8 0
-5 -9 0
-5 -10 0
-5 -11 0
-5 -12 0
-5 -13 0
-5 -14 0
-6 -7 0
-6 -8 0
-6 -9 0
-6 -10 0
-6 -11 0
-6 -12 0
-6 -13 0
-6 -14 0
-7 -8 0
-7 -9 0
-7 -10 0
-7 -11 0
-7 -12 0
-7 -13 0
-7 -14 0
-8 -9 0
-8 -10 0
-8 -11 0
-8 -12 0
-8 -13 0
-8 -14 0
-9 -10 0
-9 -11 0
-9 -12 0
-9 -13 0
-9 -14 0
-10 -11 0
-10 -12 0
-10 -13 0
-10 -14 0
-11 -12 0
-11 -13 0
-11 -14 0
-12 -13 0
-12 -14 0
-13 -14 0
2103 2104 2105 2106 2107 2108 2109 2110 2111 2112 2113 2114 2115 2116 2117 2118 2119 0
-2103 -2104 0
-2103 -2105 0
-2103 -2106 0
-2103 -2107 0
-2103 -2108 0
-2103 -2109 0
-2103 -2110 0
-2103 -2111 0
-2103 -2112 0
-2103 -2113 0
-2103 -2114 0
-2103 -2115 0
-2103 -2116 0
-2103 -2117 0
-2103 -2118 0
-2103 -2119 0
-2104 -2105 0
-2104 -2106 0
-2104 -2107 0
-2104 -2108 0
-2104 -2109 0
-2104 -2110 0
-2104 -2111 0
-2104 -2112 0
-2104 -2113 0
-2104 -2114 0
-2104 -2115 0
-2104 -2116 0
-2104 -2117 0
-2104 -2118 0
-2104 -2119 0
-2105 -2106 0
-2105 -2107 0
-2105 -2108 0
-2105 -2109 0
-2105 -2110 0
-2105 -2111 0
-2105 -2112 0
-2105 -2113 0
-2105 -2114 0
-2105 -2115 0
-2105 -2116 0
-2105 -2117 0
-2105 -2118 0
-2105 -2119 0
-2106 -2107 0
-2106 -2108 0
-2106 -2109 0
-2106 -2110 0
-2106 -2111 0
-2106 -2112 0
-2106 -2113 0
-2106 -2114 0
-2106 -2115 0
-2106 -2116 0
-2106 -2117 0
-2106 -2118 0
-2106 -2119 0
-2107 -2108 0
-2107 -2109 0
-2107 -2110 0
-2107 -2111 0
-2107 -2112 0
-2107 -2113 0
-2107 -2114 0
-2107 -2115 0
-2107 -2116 0
-2107 -2117 0
-2107 -2118 0
-2107 -2119 0
-2108 -2109 0
-2108 -2110 0
-2108 -2111 0
-2108 -2112 0
-2108 -2113 0
-2108 -2114 0
-2108 -2115 0
-2108 -2116 0
-2108 -2117 0
-2108 -2118 0
-2108 -2119 0
-2109 -2110 0
-2109 -2111 0
-2109 -2112 0
-2109 -2113 0
-2109 -2114 0
-2109 -2115 0
-2109 -2116 0
-2109 -2117 0
-2109 -2118 0
-2109 -2119 0
-2110 -2111 0
-2110 -2112 0
-2110 -2113 0
-2110 -2114 0
-2110 -2115 0
-2110 -2116 0
-2110 -2117 0
-2110 -2118 0
-2110 -2119 0
-2111 -2112 0
-2111 -2113 0
-2111 -2114 0
-2111 -2115 0
-2111 -2116 0
-2111 -2117 0
-2111 -2118 0
-2111 -2119 0
-2112 -2113 0
-2112 -2114 0
-2112 -2115 0
-2112 -2116 0
-2112 -2117 0
-2112 -2118 0
-2112 -2119 0
-2113 -2114 0
-2113 -2115 0
-2113 -2116 0
-2113 -2117 0
-2113 -2118 0
-2113 -2119 0
-2114 -2115 0
-2114 -2116 0
-2114 -2117 0
-2114 -2118 0
-2114 -2119 0
-2115 -2116 0
-2115 -2117 0
-2115 -2118 0
-2115 -2119 0
-2116 -2117 0
-2116 -2118 0
-2116 -2119 0
-2117 -2118 0
-2117 -2119 0
-2118 -2119 0
